unsat
(:cnf-encoding-aux-vars 55
 :eliminated-vars       61
 :max-memory            19.29
 :memory                18.60
 :nlsat-conflicts       9
 :nlsat-decisions       10
 :nlsat-learned-added   8
 :nlsat-propagations    35
 :num-allocs            50043
 :rlimit-count          116236
 :time                  0.09
 :total-time            0.11)
